# Solution for model GasLib-40
# Objective value = 1.2631596958316567e+01
loadshed[innode_1] 0
loadshed[innode_2] 0
loadshed[innode_3] 0
loadshed[innode_4] 0
loadshed[innode_5] 0
loadshed[innode_6] 0
loadshed[innode_7] 0
loadshed[innode_8] 0
loadshed[source_1] -2.3986974002731598e-01
loadshed[source_2] 1.3181416504188748e-01
loadshed[source_3] 1.8795673738370389e-01
loadshed[sink_1] 0
loadshed[sink_2] 0
loadshed[sink_3] 0
loadshed[sink_4] 0
loadshed[sink_5] 0
loadshed[sink_6] 0
loadshed[sink_7] 0
loadshed[sink_8] 0
loadshed[sink_9] 0
loadshed[sink_10] 0
loadshed[sink_11] 0
loadshed[sink_12] 7.7237790318368815e-01
loadshed[sink_13] 0
loadshed[sink_14] 0
loadshed[sink_15] 0
loadshed[sink_16] 0
loadshed[sink_17] 0
loadshed[sink_18] 0
loadshed[sink_19] 0
loadshed[sink_20] 0
loadshed[sink_21] 0
loadshed[sink_22] 0
loadshed[sink_23] 0
loadshed[sink_24] 0
loadshed[sink_25] 0
loadshed[sink_26] 0
loadshed[sink_27] 0
loadshed[sink_28] 0
loadshed[sink_29] 0
flow[source_1,sink_3] 1.9601135160917948e+02
flow[innode_1,sink_16] 1.6354166666666970e+01
flow[innode_6,sink_13] -1.3896978287916133e+01
flow[sink_13,sink_14] -30.2511449545828
flow[sink_14,sink_10] -4.6605311621249470e+01
flow[sink_25,sink_26] 1.6726423637501784e+02
flow[sink_26,sink_9] 1.5091006970835093e+02
flow[sink_9,sink_18] 1.3455590304168427e+02
flow[sink_26,sink_4] 0
flow[sink_4,sink_20] -2.4101103691780086e+01
flow[sink_18,sink_6] 1.1820173637501762e+02
flow[sink_25,innode_8] -1.6330301827584313e+02
flow[sink_6,sink_7] 6.9139236375017390e+01
flow[sink_6,sink_22] 3.2708333333333641e+01
flow[sink_7,sink_24] 3.6430903041683436e+01
flow[sink_22,sink_1] 1.6354166666666970e+01
flow[sink_24,sink_21] 2.0076736375016768e+01
flow[sink_21,sink_12] 3.7225697083501004e+00
flow[sink_7,sink_5] 1.6354166666667368e+01
flow[sink_5,sink_17] 0
flow[sink_17,sink_4] -7.7469370251134180e+00
flow[sink_17,sink_8] -8.6072296415532463e+00
flow[sink_3,sink_23] 16.3541666666697
flow[sink_8,sink_20] -2.4961396308219914e+01
flow[sink_25,sink_20] 6.5416666666666671e+01
flow[sink_25,sink_15] -7.1835073144592059e+01
flow[sink_15,sink_29] 0
flow[sink_29,sink_28] 1.6354166666667879e+01
flow[sink_29,sink_2] 1.0454340647792540e+02
flow[sink_2,sink_15] 8.8189239811258730e+01
flow[sink_29,innode_7] -1.3725173981125994e+02
flow[innode_4,sink_19] 5.0145074765216322e+01
flow[sink_19,innode_3] 4.6685488257557374e+01
flow[innode_4,innode_5] 7.8231070189366875e+01
flow[sink_27,innode_5] -7.8231070189366875e+01
flow[sink_27,sink_19] 6.1876903522700211e+01
flow[sink_10,sink_11] 3.2708333333333641e+01
flow[sink_10,innode_2] -4.8982323363692338e+01
flow[sink_10,innode_3] -4.6685488257557374e+01
flow[innode_6,sink_25] 1.3896978287916133e+01
flow[sink_11,innode_1] 1.6354166666666970e+01
flow[sink_19,innode_2] 4.8982323363692338e+01
flow[source_3,innode_4] 1.2837614495458320e+02
flow[source_2,innode_7] 1.3725173981125994e+02
flow[sink_3,innode_8] 1.6330301827584313e+02
pressure[innode_1] 7.6241125849886373e+01
pressure[innode_2] 7.8981745250882355e+01
pressure[innode_3] 7.8878365523694043e+01
pressure[innode_4] 81.01325
pressure[innode_5] 8.0959438544786650e+01
pressure[innode_6] 74.0577126388422
pressure[innode_7] 81.01325
pressure[innode_8] 80.3580589306209
pressure[source_1] 81.01325
pressure[source_2] 81.01325
pressure[source_3] 81.01325
pressure[sink_1] 4.3118984017544491e+01
pressure[sink_2] 74.6941011726456
pressure[sink_3] 80.3580589306209
pressure[sink_4] 5.6694410295334109e+01
pressure[sink_5] 3.7469374688604532e+01
pressure[sink_6] 4.5220061627931862e+01
pressure[sink_7] 4.4270944715499247e+01
pressure[sink_8] 5.6723121042378040e+01
pressure[sink_9] 5.3245033539575218e+01
pressure[sink_10] 7.6392827157489918e+01
pressure[sink_11] 7.6241125849886373e+01
pressure[sink_12] 1.01325
pressure[sink_13] 7.4134324357742670e+01
pressure[sink_14] 7.4188461358466668e+01
pressure[sink_15] 7.4406182741257226e+01
pressure[sink_16] 75.2194760150687
pressure[sink_17] 5.6398347906969491e+01
pressure[sink_18] 4.8376399921963866e+01
pressure[sink_19] 7.8981745250882355e+01
pressure[sink_20] 5.8462579326179110e+01
pressure[sink_21] 2.3379440392647037e+00
pressure[sink_22] 4.4182753159899505e+01
pressure[sink_23] 80.1933409189611
pressure[sink_24] 2.5602752411052605e+00
pressure[sink_25] 74.0577126388422
pressure[sink_26] 6.2277390699788363e+01
pressure[sink_27] 8.0310265217689420e+01
pressure[sink_28] 7.7047021369504591e+01
pressure[sink_29] 7.7342303643121767e+01
interdiction[source_1,sink_3] 0
interdiction[innode_1,sink_16] 0
interdiction[innode_6,sink_13] 0
interdiction[sink_13,sink_14] 0
interdiction[sink_14,sink_10] 0
interdiction[sink_25,sink_26] 0
interdiction[sink_26,sink_9] 0
interdiction[sink_9,sink_18] 0
interdiction[sink_26,sink_4] 1
interdiction[sink_4,sink_20] 0
interdiction[sink_18,sink_6] 0
interdiction[sink_25,innode_8] 0
interdiction[sink_6,sink_7] 0
interdiction[sink_6,sink_22] 0
interdiction[sink_7,sink_24] 0
interdiction[sink_22,sink_1] 0
interdiction[sink_24,sink_21] 0
interdiction[sink_21,sink_12] 0
interdiction[sink_7,sink_5] 0
interdiction[sink_5,sink_17] 1
interdiction[sink_17,sink_4] 0
interdiction[sink_17,sink_8] 0
interdiction[sink_3,sink_23] 0
interdiction[sink_8,sink_20] 0
interdiction[sink_25,sink_20] 0
interdiction[sink_25,sink_15] 0
interdiction[sink_15,sink_29] 1
interdiction[sink_29,sink_28] 0
interdiction[sink_29,sink_2] 0
interdiction[sink_2,sink_15] 0
interdiction[sink_29,innode_7] 0
interdiction[innode_4,sink_19] 0
interdiction[sink_19,innode_3] 0
interdiction[innode_4,innode_5] 0
interdiction[sink_27,innode_5] 0
interdiction[sink_27,sink_19] 0
interdiction[sink_10,sink_11] 0
interdiction[sink_10,innode_2] 0
interdiction[sink_10,innode_3] 0
interdiction[innode_6,sink_25] 0
interdiction[sink_11,innode_1] 0
interdiction[sink_19,innode_2] 0
interdiction[source_3,innode_4] 0
interdiction[source_2,innode_7] 0
interdiction[sink_3,innode_8] 0
WCcheckFlow[source_1,sink_3] 39
WCcheckFlow[innode_1,sink_16] 1
WCcheckFlow[innode_6,sink_13] 13
WCcheckFlow[sink_13,sink_14] 12
WCcheckFlow[sink_14,sink_10] 11
WCcheckFlow[sink_25,sink_26] 11
WCcheckFlow[sink_26,sink_9] 10
WCcheckFlow[sink_9,sink_18] 9
WCcheckFlow[sink_26,sink_4] 0
WCcheckFlow[sink_4,sink_20] -3
WCcheckFlow[sink_18,sink_6] 8
WCcheckFlow[sink_25,innode_8] -36
WCcheckFlow[sink_6,sink_7] 5
WCcheckFlow[sink_6,sink_22] 2
WCcheckFlow[sink_7,sink_24] 3
WCcheckFlow[sink_22,sink_1] 1
WCcheckFlow[sink_24,sink_21] 2
WCcheckFlow[sink_21,sink_12] 1
WCcheckFlow[sink_7,sink_5] 1
WCcheckFlow[sink_5,sink_17] 0
WCcheckFlow[sink_17,sink_4] -2
WCcheckFlow[sink_17,sink_8] 1
WCcheckFlow[sink_3,sink_23] 1
WCcheckFlow[sink_8,sink_20] 0
WCcheckFlow[sink_25,sink_20] 4
WCcheckFlow[sink_25,sink_15] 6
WCcheckFlow[sink_15,sink_29] 0
WCcheckFlow[sink_29,sink_28] 1
WCcheckFlow[sink_29,sink_2] -4
WCcheckFlow[sink_2,sink_15] -5
WCcheckFlow[sink_29,innode_7] 2
WCcheckFlow[innode_4,sink_19] -4
WCcheckFlow[sink_19,innode_3] -5
WCcheckFlow[innode_4,innode_5] 2
WCcheckFlow[sink_27,innode_5] -1
WCcheckFlow[sink_27,sink_19] 0
WCcheckFlow[sink_10,sink_11] 3
WCcheckFlow[sink_10,innode_2] 1
WCcheckFlow[sink_10,innode_3] 6
WCcheckFlow[innode_6,sink_25] -14
WCcheckFlow[sink_11,innode_1] 2
WCcheckFlow[sink_19,innode_2] 0
WCcheckFlow[source_3,innode_4] -1
WCcheckFlow[source_2,innode_7] -1
WCcheckFlow[sink_3,innode_8] 37
